
Gurobi 9.1.2 (linux64, gurobi_cl) logging started Mon May 10 22:33:26 2021

Academic license - for non-commercial use only - expires 2021-07-02
Using license file /home/henrique/gurobi.lic
Set parameter Method to value 2
Set parameter LogFile to value gurobi.log
Set parameter Seed to value 1
Set parameter Threads to value 1

Gurobi Optimizer version 9.1.2 build v9.1.2rc0 (linux64)
Copyright (c) 2021, Gurobi Optimization, LLC

Read MPS format model from file G2OPP_s1_L20_W20_n16_i0135.mps
Reading time = 0.01 seconds
: 356 rows, 3497 columns, 10136 nonzeros
Thread count: 4 physical cores, 8 logical processors, using up to 1 threads
Optimize a model with 356 rows, 3497 columns and 10136 nonzeros
Model fingerprint: 0xd2c15fce
Variable types: 0 continuous, 3497 integer (0 binary)
Coefficient statistics:
  Matrix range     [1e+00, 2e+00]
  Objective range  [0e+00, 0e+00]
  Bounds range     [1e+00, 2e+00]
  RHS range        [1e+00, 2e+00]
Presolve removed 41 rows and 444 columns
Presolve time: 0.76s
Presolved: 315 rows, 3053 columns, 8846 nonzeros
Variable types: 0 continuous, 3053 integer (58 binary)
Root barrier log...

Ordering time: 0.00s

Barrier statistics:
 AA' NZ     : 5.801e+03
 Factor NZ  : 3.316e+04 (roughly 2 MBytes of memory)
 Factor Ops : 4.360e+06 (less than 1 second per iteration)
 Threads    : 1

                  Objective                Residual
Iter       Primal          Dual         Primal    Dual     Compl     Time
   0   0.00000000e+00 -1.04224626e+10  8.05e+10 0.00e+00  5.15e+07     1s
   1   0.00000000e+00 -6.18158269e+09  2.35e+10 3.60e-02  1.55e+07     1s
   2   0.00000000e+00 -2.34167866e+09  7.39e+09 9.94e-03  5.09e+06     1s
   3   0.00000000e+00 -4.67491243e+08  5.25e+08 2.05e-04  4.12e+05     1s
   4   0.00000000e+00 -1.40362789e+08  8.80e+07 6.66e-16  7.83e+04     1s
   5   0.00000000e+00 -3.43356847e+07  1.29e+07 7.08e-16  1.36e+04     1s
   6   0.00000000e+00 -4.89951690e+06  1.09e+06 9.99e-16  1.46e+03     1s
   7   0.00000000e+00 -6.28967871e+05  7.11e+04 7.49e-16  1.47e+02     1s
   8   0.00000000e+00 -7.20813097e+04  6.18e+03 4.29e-15  1.56e+01     1s
   9   0.00000000e+00 -1.27809662e+04  6.41e+02 1.15e-15  2.51e+00     1s
  10   0.00000000e+00 -1.63862986e+03  9.82e+01 1.17e-15  3.26e-01     1s
  11   0.00000000e+00 -7.62062840e+01  4.94e+00 1.39e-15  1.55e-02     1s
  12   0.00000000e+00 -1.42946982e+00  5.38e-01 9.94e-16  5.06e-04     1s
  13   0.00000000e+00 -8.72153934e-01  1.79e-01 1.34e-15  2.37e-04     1s
  14   0.00000000e+00 -4.36779372e-01  8.34e-02 1.56e-15  1.15e-04     1s
  15   0.00000000e+00 -2.19411561e-01  3.30e-02 1.85e-15  5.30e-05     1s
  16   0.00000000e+00 -1.22155136e-01  1.84e-02 2.15e-15  2.95e-05     1s
  17   0.00000000e+00 -6.31186880e-02  5.25e-03 1.99e-15  1.34e-05     1s
  18   0.00000000e+00 -2.66788412e-02  1.58e-03 2.97e-15  5.37e-06     1s
  19   0.00000000e+00 -1.40433279e-02  5.20e-04 3.05e-15  2.67e-06     1s
  20   0.00000000e+00 -8.27223631e-03  2.82e-04 2.66e-15  1.57e-06     1s
  21   0.00000000e+00 -4.17015397e-03  1.07e-04 2.80e-15  7.75e-07     1s
  22   0.00000000e+00 -7.86364868e-05  4.25e-06 4.27e-15  1.60e-08     1s
  23   0.00000000e+00 -7.86611987e-08  1.40e-10 4.85e-15  1.36e-11     1s
  24   0.00000000e+00 -7.95221321e-13  1.11e-14 4.51e-15  1.37e-16     1s

Barrier solved model in 24 iterations and 0.86 seconds
Optimal objective 0.00000000e+00


Root relaxation: objective 0.000000e+00, 1041 iterations, 0.04 seconds

    Nodes    |    Current Node    |     Objective Bounds      |     Work
 Expl Unexpl |  Obj  Depth IntInf | Incumbent    BestBd   Gap | It/Node Time

     0     0    0.00000    0   43          -    0.00000      -     -    0s
     0     0 infeasible    0               - infeasible      -     -    1s

Cutting planes:
  MIR: 28
  StrongCG: 1
  Zero half: 7

Explored 1 nodes (5185 simplex iterations) in 1.43 seconds
Thread count was 1 (of 8 available processors)

Solution count 0

Model is infeasible
Best objective -, best bound -, gap -

Gurobi 9.1.2 (linux64, gurobi_cl) logging started Mon May 10 22:33:33 2021

Academic license - for non-commercial use only - expires 2021-07-02
Using license file /home/henrique/gurobi.lic
Set parameter Method to value 2
Set parameter LogFile to value gurobi.log
Set parameter Seed to value 1

Gurobi Optimizer version 9.1.2 build v9.1.2rc0 (linux64)
Copyright (c) 2021, Gurobi Optimization, LLC

Read MPS format model from file G2OPP_s1_L20_W20_n16_i0135.mps
Reading time = 0.01 seconds
: 356 rows, 3497 columns, 10136 nonzeros
Thread count: 4 physical cores, 8 logical processors, using up to 8 threads
Optimize a model with 356 rows, 3497 columns and 10136 nonzeros
Model fingerprint: 0xd2c15fce
Variable types: 0 continuous, 3497 integer (0 binary)
Coefficient statistics:
  Matrix range     [1e+00, 2e+00]
  Objective range  [0e+00, 0e+00]
  Bounds range     [1e+00, 2e+00]
  RHS range        [1e+00, 2e+00]
Presolve removed 41 rows and 444 columns
Presolve time: 0.72s
Presolved: 315 rows, 3053 columns, 8846 nonzeros
Variable types: 0 continuous, 3053 integer (58 binary)
Root barrier log...

Ordering time: 0.00s

Barrier statistics:
 AA' NZ     : 5.801e+03
 Factor NZ  : 3.316e+04 (roughly 2 MBytes of memory)
 Factor Ops : 4.360e+06 (less than 1 second per iteration)
 Threads    : 1

                  Objective                Residual
Iter       Primal          Dual         Primal    Dual     Compl     Time
   0   0.00000000e+00 -1.04224626e+10  8.05e+10 0.00e+00  5.15e+07     1s
   1   0.00000000e+00 -6.18158269e+09  2.35e+10 3.60e-02  1.55e+07     1s
   2   0.00000000e+00 -2.34167866e+09  7.39e+09 9.94e-03  5.09e+06     1s
   3   0.00000000e+00 -4.67491243e+08  5.25e+08 2.05e-04  4.12e+05     1s
   4   0.00000000e+00 -1.40362789e+08  8.80e+07 6.66e-16  7.83e+04     1s
   5   0.00000000e+00 -3.43356847e+07  1.29e+07 7.22e-16  1.36e+04     1s
   6   0.00000000e+00 -4.89951690e+06  1.09e+06 8.05e-16  1.46e+03     1s
   7   0.00000000e+00 -6.28967871e+05  7.11e+04 7.77e-16  1.47e+02     1s
   8   0.00000000e+00 -7.20813097e+04  6.18e+03 5.00e-15  1.56e+01     1s
   9   0.00000000e+00 -1.27809662e+04  6.41e+02 9.58e-16  2.51e+00     1s
  10   0.00000000e+00 -1.63862986e+03  9.82e+01 9.23e-16  3.26e-01     1s
  11   0.00000000e+00 -7.62062840e+01  4.94e+00 1.14e-15  1.55e-02     1s
  12   0.00000000e+00 -1.42946982e+00  5.38e-01 1.53e-15  5.06e-04     1s
  13   0.00000000e+00 -8.72153934e-01  1.79e-01 1.23e-15  2.37e-04     1s
  14   0.00000000e+00 -4.36779372e-01  8.34e-02 1.22e-15  1.15e-04     1s
  15   0.00000000e+00 -2.19411561e-01  3.30e-02 1.66e-15  5.30e-05     1s
  16   0.00000000e+00 -1.22155136e-01  1.84e-02 2.03e-15  2.95e-05     1s
  17   0.00000000e+00 -6.31186880e-02  5.25e-03 2.19e-15  1.34e-05     1s
  18   0.00000000e+00 -2.66788413e-02  1.58e-03 2.73e-15  5.37e-06     1s
  19   0.00000000e+00 -1.40433280e-02  5.20e-04 3.11e-15  2.67e-06     1s
  20   0.00000000e+00 -8.27223626e-03  2.82e-04 3.00e-15  1.57e-06     1s
  21   0.00000000e+00 -4.17015399e-03  1.07e-04 3.00e-15  7.75e-07     1s
  22   0.00000000e+00 -7.86365145e-05  4.25e-06 3.84e-15  1.60e-08     1s
  23   0.00000000e+00 -7.86612219e-08  1.44e-10 3.68e-15  1.36e-11     1s
  24   0.00000000e+00 -1.43958939e-12  2.15e-14 3.55e-15  2.48e-16     1s

Barrier solved model in 24 iterations and 0.96 seconds
Optimal objective 0.00000000e+00


Root relaxation: objective 0.000000e+00, 1041 iterations, 0.05 seconds

    Nodes    |    Current Node    |     Objective Bounds      |     Work
 Expl Unexpl |  Obj  Depth IntInf | Incumbent    BestBd   Gap | It/Node Time

H    0     0                       0.0000000    0.00000  0.00%     -    1s
     0     0    0.00000    0   34    0.00000    0.00000  0.00%     -    1s

Explored 0 nodes (2242 simplex iterations) in 1.02 seconds
Thread count was 8 (of 8 available processors)

Solution count 1: 0 

Optimal solution found (tolerance 1.00e-04)
Best objective 0.000000000000e+00, best bound 0.000000000000e+00, gap 0.0000%

Gurobi 9.1.2 (linux64, gurobi_cl) logging started Mon May 10 22:33:40 2021

Academic license - for non-commercial use only - expires 2021-07-02
Using license file /home/henrique/gurobi.lic
Set parameter Method to value 2
Set parameter LogFile to value gurobi.log
Set parameter Threads to value 1

Gurobi Optimizer version 9.1.2 build v9.1.2rc0 (linux64)
Copyright (c) 2021, Gurobi Optimization, LLC

Read MPS format model from file G2OPP_s1_L20_W20_n16_i0135.mps
Reading time = 0.01 seconds
: 356 rows, 3497 columns, 10136 nonzeros
Thread count: 4 physical cores, 8 logical processors, using up to 1 threads
Optimize a model with 356 rows, 3497 columns and 10136 nonzeros
Model fingerprint: 0xd2c15fce
Variable types: 0 continuous, 3497 integer (0 binary)
Coefficient statistics:
  Matrix range     [1e+00, 2e+00]
  Objective range  [0e+00, 0e+00]
  Bounds range     [1e+00, 2e+00]
  RHS range        [1e+00, 2e+00]
Presolve removed 41 rows and 444 columns
Presolve time: 0.79s
Presolved: 315 rows, 3053 columns, 8846 nonzeros
Variable types: 0 continuous, 3053 integer (58 binary)
Root barrier log...

Ordering time: 0.00s

Barrier statistics:
 AA' NZ     : 5.801e+03
 Factor NZ  : 3.311e+04 (roughly 2 MBytes of memory)
 Factor Ops : 4.350e+06 (less than 1 second per iteration)
 Threads    : 1

                  Objective                Residual
Iter       Primal          Dual         Primal    Dual     Compl     Time
   0   0.00000000e+00 -9.36827057e+09  5.97e+10 0.00e+00  3.85e+07     1s
   1   0.00000000e+00 -5.35683179e+09  1.81e+10 3.64e-02  1.21e+07     1s
   2   0.00000000e+00 -1.98418751e+09  5.80e+09 9.91e-03  4.02e+06     1s
   3   0.00000000e+00 -4.66643239e+08  4.13e+08 5.39e-04  3.40e+05     1s
   4   0.00000000e+00 -1.60786894e+08  8.42e+07 6.94e-16  7.93e+04     1s
   5   0.00000000e+00 -3.82661734e+07  1.04e+07 6.11e-16  1.27e+04     1s
   6   0.00000000e+00 -6.19460581e+06  7.35e+05 6.38e-16  1.48e+03     1s
   7   0.00000000e+00 -7.94484264e+05  6.65e+04 8.33e-16  1.73e+02     1s
   8   0.00000000e+00 -1.06508942e+05  7.32e+03 1.08e-15  2.22e+01     1s
   9   0.00000000e+00 -1.79693624e+04  6.65e+02 8.60e-16  3.42e+00     1s
  10   0.00000000e+00 -2.02602354e+03  5.92e+01 1.04e-15  3.76e-01     1s
  11   0.00000000e+00 -1.31945994e+02  2.92e+00 1.14e-15  2.40e-02     1s
  12   0.00000000e+00 -5.25718776e+00  5.92e-01 1.20e-15  1.17e-03     1s
  13   0.00000000e+00 -3.02597967e+00  2.28e-01 1.12e-15  6.24e-04     1s
  14   0.00000000e+00 -1.64217110e+00  1.07e-01 1.35e-15  3.31e-04     1s
  15   0.00000000e+00 -6.78928765e-01  3.83e-02 2.00e-15  1.35e-04     1s
  16   0.00000000e+00 -4.23519351e-01  1.94e-02 2.23e-15  8.25e-05     1s
  17   0.00000000e+00 -1.98301552e-01  5.48e-03 2.55e-15  3.73e-05     1s
  18   0.00000000e+00 -7.89385686e-02  2.08e-03 2.61e-15  1.48e-05     1s
  19   0.00000000e+00 -2.90198607e-02  5.43e-04 3.00e-15  5.31e-06     1s
  20   0.00000000e+00 -1.67147339e-02  2.48e-04 3.80e-15  3.03e-06     1s
  21   0.00000000e+00 -1.69347258e-03  3.43e-05 5.15e-15  3.14e-07     1s
  22   0.00000000e+00 -2.85882431e-06  2.92e-08 3.68e-15  5.11e-10     1s
  23   0.00000000e+00 -2.85882816e-09  1.31e-11 4.13e-15  5.00e-13     1s

Barrier solved model in 23 iterations and 0.83 seconds
Optimal objective 0.00000000e+00


Root relaxation: objective 0.000000e+00, 1042 iterations, 0.04 seconds

    Nodes    |    Current Node    |     Objective Bounds      |     Work
 Expl Unexpl |  Obj  Depth IntInf | Incumbent    BestBd   Gap | It/Node Time

*    0     0               0       0.0000000    0.00000  0.00%     -    0s

Explored 0 nodes (4096 simplex iterations) in 0.90 seconds
Thread count was 1 (of 8 available processors)

Solution count 1: 0 

Optimal solution found (tolerance 1.00e-04)
Best objective 0.000000000000e+00, best bound 0.000000000000e+00, gap 0.0000%

Gurobi 9.1.2 (linux64, gurobi_cl) logging started Mon May 10 22:33:52 2021

Academic license - for non-commercial use only - expires 2021-07-02
Using license file /home/henrique/gurobi.lic
Set parameter LogFile to value gurobi.log
Set parameter Seed to value 1
Set parameter Threads to value 1

Gurobi Optimizer version 9.1.2 build v9.1.2rc0 (linux64)
Copyright (c) 2021, Gurobi Optimization, LLC

Read MPS format model from file G2OPP_s1_L20_W20_n16_i0135.mps
Reading time = 0.01 seconds
: 356 rows, 3497 columns, 10136 nonzeros
Thread count: 4 physical cores, 8 logical processors, using up to 1 threads
Optimize a model with 356 rows, 3497 columns and 10136 nonzeros
Model fingerprint: 0xd2c15fce
Variable types: 0 continuous, 3497 integer (0 binary)
Coefficient statistics:
  Matrix range     [1e+00, 2e+00]
  Objective range  [0e+00, 0e+00]
  Bounds range     [1e+00, 2e+00]
  RHS range        [1e+00, 2e+00]
Presolve removed 41 rows and 444 columns
Presolve time: 0.72s
Presolved: 315 rows, 3053 columns, 8846 nonzeros
Variable types: 0 continuous, 3053 integer (58 binary)

Root relaxation: objective 0.000000e+00, 1720 iterations, 0.07 seconds

    Nodes    |    Current Node    |     Objective Bounds      |     Work
 Expl Unexpl |  Obj  Depth IntInf | Incumbent    BestBd   Gap | It/Node Time

     0     0    0.00000    0   10          -    0.00000      -     -    0s
*    0     0               0       0.0000000    0.00000  0.00%     -    1s

Cutting planes:
  MIR: 9

Explored 1 nodes (5215 simplex iterations) in 1.42 seconds
Thread count was 1 (of 8 available processors)

Solution count 1: 0 

Optimal solution found (tolerance 1.00e-04)
Best objective 0.000000000000e+00, best bound 0.000000000000e+00, gap 0.0000%
